
===== New CPLEX run =====
Instance: /home/yorig/tuner/mpils-tests/instances/miplib/medium-1/mushroom-best.mps
Config: /scratch/yorig/mpils-results-grid-seconds-5/medium-1/24proc/seed-2/7_mushroom-best_seed-2_20260503_110448/expansion/config_param_CPXPARAM_MIP_Strategy_Dive_3_iter_1.prm
========================

Selected objective sense:  MINIMIZE
Selected objective  name:  obj
Selected RHS        name:  rhs
Selected bound      name:  bnd
Version identifier: 22.1.2.0 | 2024-11-26 | 0edbb82fd
CPXPARAM_Threads                                 8
CPXPARAM_Parallel                                1
CPXPARAM_MIP_Cuts_Cliques                        1
CPXPARAM_MIP_Cuts_FlowCovers                     1
CPXPARAM_MIP_Cuts_GUBCovers                      -1
CPXPARAM_MIP_Limits_GomoryCand                   10
CPXPARAM_MIP_Cuts_Gomory                         -1
CPXPARAM_MIP_Cuts_PathCut                        1
CPXPARAM_MIP_Cuts_MIRCut                         -1
CPXPARAM_MIP_Cuts_Disjunctive                    2
CPXPARAM_Emphasis_MIP                            3
CPXPARAM_MIP_Strategy_Dive                       3
CPXPARAM_TimeLimit                               5
Found incumbent of value 8124.895732 after 0.00 sec. (1.54 ticks)
Tried aggregator 2 times.
MIP Presolve eliminated 88 rows and 0 columns.
MIP Presolve modified 8124 coefficients.
Aggregator did 4 substitutions.
Reduced MIP has 8488 rows, 8464 columns, and 180316 nonzeros.
Reduced MIP has 8237 binaries, 114 generals, 0 SOSs, and 0 indicators.
Presolve time = 0.05 sec. (69.18 ticks)
Probing time = 0.00 sec. (2.69 ticks)
Tried aggregator 2 times.
Detecting symmetries...
MIP Presolve modified 6649 coefficients.
Aggregator did 44 substitutions.
Reduced MIP has 8444 rows, 8420 columns, and 180228 nonzeros.
Reduced MIP has 8237 binaries, 183 generals, 0 SOSs, and 0 indicators.
Presolve time = 0.08 sec. (102.88 ticks)
Probing time = 0.00 sec. (2.82 ticks)
MIP emphasis: best bound.
MIP search method: dynamic search.
Parallel mode: deterministic, using up to 8 threads.
Root relaxation solution time = 0.14 sec. (206.49 ticks)

        Nodes                                         Cuts/
   Node  Left     Objective  IInf  Best Integer    Best Bound    ItCnt     Gap

*     0+    0                         8124.8957        0.0000           100.00%
*     0+    0                         3916.5463        0.0000           100.00%
*     0+    0                         3916.5456        0.0000           100.00%
*     0+    0                         3916.5450        0.0000           100.00%
*     0+    0                         3916.0000        0.0000           100.00%
      0     0        0.0000    26     3916.0000        0.0000      406  100.00%
*     0+    0                           38.1106        0.0000           100.00%
*     0+    0                            0.0711        0.0000            99.98%
*     0+    0                            0.0632        0.0000            99.98%
      0     0  -1.00000e+75     0        0.0632        0.0000      406   99.98%

Repeating presolve.
Tried aggregator 1 time.
MIP Presolve eliminated 98 rows and 8128 columns.
MIP Presolve modified 8124 coefficients.
Reduced MIP has 8346 rows, 292 columns, and 170180 nonzeros.
Reduced MIP has 111 binaries, 181 generals, 0 SOSs, and 0 indicators.
Presolve time = 0.04 sec. (61.97 ticks)
Probing time = 0.00 sec. (2.09 ticks)
Tried aggregator 1 time.
Detecting symmetries...
Reduced MIP has 8346 rows, 292 columns, and 170180 nonzeros.
Reduced MIP has 111 binaries, 181 generals, 0 SOSs, and 0 indicators.
Presolve time = 0.04 sec. (46.86 ticks)
Represolve time = 0.09 sec. (129.23 ticks)
Probing time = 0.00 sec. (2.09 ticks)
MIP emphasis: best bound.
MIP search method: dynamic search.
Parallel mode: deterministic, using up to 8 threads.
Root relaxation solution time = 0.13 sec. (160.03 ticks)

        Nodes                                         Cuts/
   Node  Left     Objective  IInf  Best Integer    Best Bound    ItCnt     Gap

*     0+    0                            0.0632        0.0000            99.98%
      0     0        0.0127    13        0.0632        0.0127      678   79.94%
      0     2        0.0127    13        0.0632        0.0190      678   69.94%
Elapsed time = 1.27 sec. (2111.78 ticks, tree = 0.02 MB, solutions = 7)
*     5+    2                            0.0553        0.0190            65.65%
     21    16        0.0146    39        0.0553        0.0190     1304   65.65%
     69    60        0.0252    68        0.0553        0.0190     4081   65.62%
    118   110        0.0332    10        0.0553        0.0253     7829   54.21%
    191   166        0.0388    33        0.0553        0.0278    11670   49.80%
    265   250        0.0320    61        0.0553        0.0298    16597   46.09%
    326   294        0.0326    51        0.0553        0.0309    19346   44.16%
    387   364        0.0380     4        0.0553        0.0319    23831   42.31%
    453   411        0.0409    41        0.0553        0.0323    25769   41.57%
    517   482        0.0403    15        0.0553        0.0332    31036   39.93%
    829   725        0.0396    44        0.0553        0.0344    45674   37.75%
Elapsed time = 3.88 sec. (5243.28 ticks, tree = 1.61 MB, solutions = 12)
   1126   993        0.0384    16        0.0553        0.0357    59874   35.54%

Clique cuts applied:  0
Flow cuts applied:  0
Flow path cuts applied:  0
Disjunctive cuts applied:  0
Cone linearizations applied:  0

Root node processing (before b&c):
  Real time             =    1.26 sec. (2104.20 ticks)
Parallel b&c, 8 threads:
  Real time             =    3.74 sec. (4512.96 ticks)
  Sync time (average)   =    0.42 sec.
  Wait time (average)   =    0.00 sec.
                          ------------
Total (root+branch&cut) =    5.01 sec. (6617.16 ticks)
Gap: 33.43%
Upper bound: 0.0553338
Lower bound: 0.0368373
End of CPLEX run. Time: 5.00865 seconds

===== New CPLEX run =====
Instance: /home/yorig/tuner/mpils-tests/instances/miplib/medium-1/mushroom-best.mps
Config: /scratch/yorig/mpils-results-grid-seconds-5/medium-1/24proc/seed-2/7_mushroom-best_seed-2_20260503_110448/expansion/config_param_CPXPARAM_MIP_Limits_ProbeTime_0_iter_1.prm
========================

Selected objective sense:  MINIMIZE
Selected objective  name:  obj
Selected RHS        name:  rhs
Selected bound      name:  bnd
Version identifier: 22.1.2.0 | 2024-11-26 | 0edbb82fd
CPXPARAM_Threads                                 8
CPXPARAM_Parallel                                1
CPXPARAM_MIP_Cuts_Cliques                        1
CPXPARAM_MIP_Cuts_FlowCovers                     1
CPXPARAM_MIP_Cuts_GUBCovers                      -1
CPXPARAM_MIP_Limits_GomoryCand                   10
CPXPARAM_MIP_Cuts_Gomory                         -1
CPXPARAM_MIP_Cuts_PathCut                        1
CPXPARAM_MIP_Cuts_MIRCut                         -1
CPXPARAM_MIP_Cuts_Disjunctive                    2
CPXPARAM_Emphasis_MIP                            3
CPXPARAM_TimeLimit                               5
CPXPARAM_MIP_Limits_ProbeTime                    0
Found incumbent of value 8124.895732 after 0.00 sec. (1.54 ticks)
Tried aggregator 2 times.
MIP Presolve eliminated 88 rows and 0 columns.
MIP Presolve modified 8124 coefficients.
Aggregator did 4 substitutions.
Reduced MIP has 8488 rows, 8464 columns, and 180316 nonzeros.
Reduced MIP has 8237 binaries, 114 generals, 0 SOSs, and 0 indicators.
Presolve time = 0.05 sec. (69.18 ticks)
Tried aggregator 2 times.
Detecting symmetries...
MIP Presolve modified 6649 coefficients.
Aggregator did 44 substitutions.
Reduced MIP has 8444 rows, 8420 columns, and 180228 nonzeros.
Reduced MIP has 8237 binaries, 183 generals, 0 SOSs, and 0 indicators.
Presolve time = 0.08 sec. (102.88 ticks)
MIP emphasis: best bound.
MIP search method: dynamic search.
Parallel mode: deterministic, using up to 8 threads.
Root relaxation solution time = 0.14 sec. (206.49 ticks)

        Nodes                                         Cuts/
   Node  Left     Objective  IInf  Best Integer    Best Bound    ItCnt     Gap

*     0+    0                         8124.8957        0.0000           100.00%
*     0+    0                         3916.5463        0.0000           100.00%
*     0+    0                         3916.5456        0.0000           100.00%
*     0+    0                         3916.5450        0.0000           100.00%
*     0+    0                         3916.0000        0.0000           100.00%
      0     0        0.0000    26     3916.0000        0.0000      406  100.00%
*     0+    0                           38.1106        0.0000           100.00%
*     0+    0                            0.0711        0.0000            99.98%
*     0+    0                            0.0632        0.0000            99.98%
      0     0  -1.00000e+75     0        0.0632        0.0000      406   99.98%

Repeating presolve.
Tried aggregator 1 time.
MIP Presolve eliminated 98 rows and 8128 columns.
MIP Presolve modified 8124 coefficients.
Reduced MIP has 8346 rows, 292 columns, and 170180 nonzeros.
Reduced MIP has 111 binaries, 181 generals, 0 SOSs, and 0 indicators.
Presolve time = 0.04 sec. (61.97 ticks)
Tried aggregator 1 time.
Detecting symmetries...
Reduced MIP has 8346 rows, 292 columns, and 170180 nonzeros.
Reduced MIP has 111 binaries, 181 generals, 0 SOSs, and 0 indicators.
Presolve time = 0.04 sec. (46.86 ticks)
Represolve time = 0.08 sec. (126.34 ticks)
MIP emphasis: best bound.
MIP search method: dynamic search.
Parallel mode: deterministic, using up to 8 threads.
Root relaxation solution time = 0.13 sec. (160.03 ticks)

        Nodes                                         Cuts/
   Node  Left     Objective  IInf  Best Integer    Best Bound    ItCnt     Gap

*     0+    0                            0.0632        0.0000            99.98%
      0     0        0.0127    13        0.0632        0.0127      678   79.94%
      0     2        0.0127    13        0.0632        0.0190      678   69.94%
Elapsed time = 1.25 sec. (2092.56 ticks, tree = 0.02 MB, solutions = 7)
*     5+    2                            0.0553        0.0190            65.65%
     20    14        0.0474     4        0.0553        0.0190     1162   65.65%
     80    73        0.0269    12        0.0553        0.0190     4877   65.65%
    144   114        0.0317    12        0.0553        0.0253     7622   54.20%
    216   188        0.0356    10        0.0553        0.0281    12014   49.19%
    269   261        0.0298    45        0.0553        0.0285    16753   48.46%
    337   314        0.0373    50        0.0553        0.0300    19805   45.81%
    411   394        0.0347    52        0.0553        0.0317    24227   42.73%
    488   416        0.0411    42        0.0553        0.0328    25445   40.74%
    561   515        0.0417    45        0.0553        0.0333    31314   39.91%
    896   753        0.0427    12        0.0553        0.0349    42344   37.01%
Elapsed time = 3.88 sec. (5224.31 ticks, tree = 1.19 MB, solutions = 15)
   1254  1112        0.0396     9        0.0553        0.0364    57933   34.21%

Clique cuts applied:  0
Flow cuts applied:  0
Flow path cuts applied:  0
Disjunctive cuts applied:  0
Cone linearizations applied:  0

Root node processing (before b&c):
  Real time             =    1.25 sec. (2085.15 ticks)
Parallel b&c, 8 threads:
  Real time             =    3.77 sec. (4493.40 ticks)
  Sync time (average)   =    0.38 sec.
  Wait time (average)   =    0.00 sec.
                          ------------
Total (root+branch&cut) =    5.01 sec. (6578.55 ticks)
Gap: 32.75%
Upper bound: 0.0553338
Lower bound: 0.0372144
End of CPLEX run. Time: 5.01539 seconds
